myproject/instances/20nodes/rnd36_20.tsp
NAME : rnd36_20.tsp
TYPE : TSP
DIMENSION : 20
EDGE_WEIGHT_TYPE : EUC_2D
NODE_COORD_SECTION
1 347 230
2 442 40
3 354 389
4 150 664
5 523 775
6 352 696
7 7 63
8 803 335
9 646 275
10 775 522
11 201 153
12 456 283
13 642 472
14 546 349
15 789 827
16 385 330
17 445 390
18 387 817
19 111 310
20 802 520
