myproject/instances/20nodes/rnd36_20.opt.tour
NAME : rnd36_20.tsp.tsp.opt.tour
TYPE : TOUR
DIMENSION : 20
TOUR_SECTION
1
20
6
7
17
2
4
5
11
16
8
14
13
19
12
9
3
18
15
10
-1